(set-option :produce-models true)

(declare-const x00 Int)
(assert (= x00 9))
(declare-const x01 Int)
(assert (>= x01 1))
(assert (<= x01 9))
(declare-const x02 Int)
(assert (= x02 5))
(declare-const x03 Int)
(assert (>= x03 1))
(assert (<= x03 9))
(declare-const x04 Int)
(assert (>= x04 1))
(assert (<= x04 9))
(declare-const x05 Int)
(assert (>= x05 1))
(assert (<= x05 9))
(declare-const x06 Int)
(assert (>= x06 1))
(assert (<= x06 9))
(declare-const x07 Int)
(assert (>= x07 1))
(assert (<= x07 9))
(declare-const x08 Int)
(assert (= x08 8))
(declare-const x10 Int)
(assert (= x10 4))
(declare-const x11 Int)
(assert (>= x11 1))
(assert (<= x11 9))
(declare-const x12 Int)
(assert (>= x12 1))
(assert (<= x12 9))
(declare-const x13 Int)
(assert (= x13 5))
(declare-const x14 Int)
(assert (= x14 7))
(declare-const x15 Int)
(assert (>= x15 1))
(assert (<= x15 9))
(declare-const x16 Int)
(assert (= x16 1))
(declare-const x17 Int)
(assert (>= x17 1))
(assert (<= x17 9))
(declare-const x18 Int)
(assert (= x18 6))
(declare-const x20 Int)
(assert (>= x20 1))
(assert (<= x20 9))
(declare-const x21 Int)
(assert (= x21 2))
(declare-const x22 Int)
(assert (= x22 7))
(declare-const x23 Int)
(assert (= x23 6))
(declare-const x24 Int)
(assert (>= x24 1))
(assert (<= x24 9))
(declare-const x25 Int)
(assert (>= x25 1))
(assert (<= x25 9))
(declare-const x26 Int)
(assert (>= x26 1))
(assert (<= x26 9))
(declare-const x27 Int)
(assert (= x27 4))
(declare-const x28 Int)
(assert (>= x28 1))
(assert (<= x28 9))
(declare-const x30 Int)
(assert (>= x30 1))
(assert (<= x30 9))
(declare-const x31 Int)
(assert (= x31 9))
(declare-const x32 Int)
(assert (= x32 6))
(declare-const x33 Int)
(assert (>= x33 1))
(assert (<= x33 9))
(declare-const x34 Int)
(assert (>= x34 1))
(assert (<= x34 9))
(declare-const x35 Int)
(assert (= x35 3))
(declare-const x36 Int)
(assert (= x36 5))
(declare-const x37 Int)
(assert (= x37 1))
(declare-const x38 Int)
(assert (= x38 2))
(declare-const x40 Int)
(assert (= x40 7))
(declare-const x41 Int)
(assert (>= x41 1))
(assert (<= x41 9))
(declare-const x42 Int)
(assert (= x42 4))
(declare-const x43 Int)
(assert (>= x43 1))
(assert (<= x43 9))
(declare-const x44 Int)
(assert (= x44 1))
(declare-const x45 Int)
(assert (>= x45 1))
(assert (<= x45 9))
(declare-const x46 Int)
(assert (= x46 3))
(declare-const x47 Int)
(assert (>= x47 1))
(assert (<= x47 9))
(declare-const x48 Int)
(assert (>= x48 1))
(assert (<= x48 9))
(declare-const x50 Int)
(assert (= x50 2))
(declare-const x51 Int)
(assert (= x51 1))
(declare-const x52 Int)
(assert (>= x52 1))
(assert (<= x52 9))
(declare-const x53 Int)
(assert (= x53 9))
(declare-const x54 Int)
(assert (= x54 8))
(declare-const x55 Int)
(assert (>= x55 1))
(assert (<= x55 9))
(declare-const x56 Int)
(assert (>= x56 1))
(assert (<= x56 9))
(declare-const x57 Int)
(assert (>= x57 1))
(assert (<= x57 9))
(declare-const x58 Int)
(assert (= x58 4))
(declare-const x60 Int)
(assert (>= x60 1))
(assert (<= x60 9))
(declare-const x61 Int)
(assert (= x61 8))
(declare-const x62 Int)
(assert (= x62 1))
(declare-const x63 Int)
(assert (>= x63 1))
(assert (<= x63 9))
(declare-const x64 Int)
(assert (>= x64 1))
(assert (<= x64 9))
(declare-const x65 Int)
(assert (= x65 4))
(declare-const x66 Int)
(assert (>= x66 1))
(assert (<= x66 9))
(declare-const x67 Int)
(assert (= x67 9))
(declare-const x68 Int)
(assert (>= x68 1))
(assert (<= x68 9))
(declare-const x70 Int)
(assert (= x70 3))
(declare-const x71 Int)
(assert (>= x71 1))
(assert (<= x71 9))
(declare-const x72 Int)
(assert (>= x72 1))
(assert (<= x72 9))
(declare-const x73 Int)
(assert (= x73 8))
(declare-const x74 Int)
(assert (>= x74 1))
(assert (<= x74 9))
(declare-const x75 Int)
(assert (>= x75 1))
(assert (<= x75 9))
(declare-const x76 Int)
(assert (>= x76 1))
(assert (<= x76 9))
(declare-const x77 Int)
(assert (= x77 5))
(declare-const x78 Int)
(assert (= x78 1))
(declare-const x80 Int)
(assert (>= x80 1))
(assert (<= x80 9))
(declare-const x81 Int)
(assert (>= x81 1))
(assert (<= x81 9))
(declare-const x82 Int)
(assert (= x82 2))
(declare-const x83 Int)
(assert (>= x83 1))
(assert (<= x83 9))
(declare-const x84 Int)
(assert (>= x84 1))
(assert (<= x84 9))
(declare-const x85 Int)
(assert (= x85 7))
(declare-const x86 Int)
(assert (>= x86 1))
(assert (<= x86 9))
(declare-const x87 Int)
(assert (= x87 6))
(declare-const x88 Int)
(assert (>= x88 1))
(assert (<= x88 9))
(assert (not (= x00 x01)))
(assert (not (= x00 x02)))
(assert (not (= x00 x03)))
(assert (not (= x00 x04)))
(assert (not (= x00 x05)))
(assert (not (= x00 x06)))
(assert (not (= x00 x07)))
(assert (not (= x00 x08)))
(assert (not (= x01 x02)))
(assert (not (= x01 x03)))
(assert (not (= x01 x04)))
(assert (not (= x01 x05)))
(assert (not (= x01 x06)))
(assert (not (= x01 x07)))
(assert (not (= x01 x08)))
(assert (not (= x02 x03)))
(assert (not (= x02 x04)))
(assert (not (= x02 x05)))
(assert (not (= x02 x06)))
(assert (not (= x02 x07)))
(assert (not (= x02 x08)))
(assert (not (= x03 x04)))
(assert (not (= x03 x05)))
(assert (not (= x03 x06)))
(assert (not (= x03 x07)))
(assert (not (= x03 x08)))
(assert (not (= x04 x05)))
(assert (not (= x04 x06)))
(assert (not (= x04 x07)))
(assert (not (= x04 x08)))
(assert (not (= x05 x06)))
(assert (not (= x05 x07)))
(assert (not (= x05 x08)))
(assert (not (= x06 x07)))
(assert (not (= x06 x08)))
(assert (not (= x07 x08)))
(assert (not (= x10 x11)))
(assert (not (= x10 x12)))
(assert (not (= x10 x13)))
(assert (not (= x10 x14)))
(assert (not (= x10 x15)))
(assert (not (= x10 x16)))
(assert (not (= x10 x17)))
(assert (not (= x10 x18)))
(assert (not (= x11 x12)))
(assert (not (= x11 x13)))
(assert (not (= x11 x14)))
(assert (not (= x11 x15)))
(assert (not (= x11 x16)))
(assert (not (= x11 x17)))
(assert (not (= x11 x18)))
(assert (not (= x12 x13)))
(assert (not (= x12 x14)))
(assert (not (= x12 x15)))
(assert (not (= x12 x16)))
(assert (not (= x12 x17)))
(assert (not (= x12 x18)))
(assert (not (= x13 x14)))
(assert (not (= x13 x15)))
(assert (not (= x13 x16)))
(assert (not (= x13 x17)))
(assert (not (= x13 x18)))
(assert (not (= x14 x15)))
(assert (not (= x14 x16)))
(assert (not (= x14 x17)))
(assert (not (= x14 x18)))
(assert (not (= x15 x16)))
(assert (not (= x15 x17)))
(assert (not (= x15 x18)))
(assert (not (= x16 x17)))
(assert (not (= x16 x18)))
(assert (not (= x17 x18)))
(assert (not (= x20 x21)))
(assert (not (= x20 x22)))
(assert (not (= x20 x23)))
(assert (not (= x20 x24)))
(assert (not (= x20 x25)))
(assert (not (= x20 x26)))
(assert (not (= x20 x27)))
(assert (not (= x20 x28)))
(assert (not (= x21 x22)))
(assert (not (= x21 x23)))
(assert (not (= x21 x24)))
(assert (not (= x21 x25)))
(assert (not (= x21 x26)))
(assert (not (= x21 x27)))
(assert (not (= x21 x28)))
(assert (not (= x22 x23)))
(assert (not (= x22 x24)))
(assert (not (= x22 x25)))
(assert (not (= x22 x26)))
(assert (not (= x22 x27)))
(assert (not (= x22 x28)))
(assert (not (= x23 x24)))
(assert (not (= x23 x25)))
(assert (not (= x23 x26)))
(assert (not (= x23 x27)))
(assert (not (= x23 x28)))
(assert (not (= x24 x25)))
(assert (not (= x24 x26)))
(assert (not (= x24 x27)))
(assert (not (= x24 x28)))
(assert (not (= x25 x26)))
(assert (not (= x25 x27)))
(assert (not (= x25 x28)))
(assert (not (= x26 x27)))
(assert (not (= x26 x28)))
(assert (not (= x27 x28)))
(assert (not (= x30 x31)))
(assert (not (= x30 x32)))
(assert (not (= x30 x33)))
(assert (not (= x30 x34)))
(assert (not (= x30 x35)))
(assert (not (= x30 x36)))
(assert (not (= x30 x37)))
(assert (not (= x30 x38)))
(assert (not (= x31 x32)))
(assert (not (= x31 x33)))
(assert (not (= x31 x34)))
(assert (not (= x31 x35)))
(assert (not (= x31 x36)))
(assert (not (= x31 x37)))
(assert (not (= x31 x38)))
(assert (not (= x32 x33)))
(assert (not (= x32 x34)))
(assert (not (= x32 x35)))
(assert (not (= x32 x36)))
(assert (not (= x32 x37)))
(assert (not (= x32 x38)))
(assert (not (= x33 x34)))
(assert (not (= x33 x35)))
(assert (not (= x33 x36)))
(assert (not (= x33 x37)))
(assert (not (= x33 x38)))
(assert (not (= x34 x35)))
(assert (not (= x34 x36)))
(assert (not (= x34 x37)))
(assert (not (= x34 x38)))
(assert (not (= x35 x36)))
(assert (not (= x35 x37)))
(assert (not (= x35 x38)))
(assert (not (= x36 x37)))
(assert (not (= x36 x38)))
(assert (not (= x37 x38)))
(assert (not (= x40 x41)))
(assert (not (= x40 x42)))
(assert (not (= x40 x43)))
(assert (not (= x40 x44)))
(assert (not (= x40 x45)))
(assert (not (= x40 x46)))
(assert (not (= x40 x47)))
(assert (not (= x40 x48)))
(assert (not (= x41 x42)))
(assert (not (= x41 x43)))
(assert (not (= x41 x44)))
(assert (not (= x41 x45)))
(assert (not (= x41 x46)))
(assert (not (= x41 x47)))
(assert (not (= x41 x48)))
(assert (not (= x42 x43)))
(assert (not (= x42 x44)))
(assert (not (= x42 x45)))
(assert (not (= x42 x46)))
(assert (not (= x42 x47)))
(assert (not (= x42 x48)))
(assert (not (= x43 x44)))
(assert (not (= x43 x45)))
(assert (not (= x43 x46)))
(assert (not (= x43 x47)))
(assert (not (= x43 x48)))
(assert (not (= x44 x45)))
(assert (not (= x44 x46)))
(assert (not (= x44 x47)))
(assert (not (= x44 x48)))
(assert (not (= x45 x46)))
(assert (not (= x45 x47)))
(assert (not (= x45 x48)))
(assert (not (= x46 x47)))
(assert (not (= x46 x48)))
(assert (not (= x47 x48)))
(assert (not (= x50 x51)))
(assert (not (= x50 x52)))
(assert (not (= x50 x53)))
(assert (not (= x50 x54)))
(assert (not (= x50 x55)))
(assert (not (= x50 x56)))
(assert (not (= x50 x57)))
(assert (not (= x50 x58)))
(assert (not (= x51 x52)))
(assert (not (= x51 x53)))
(assert (not (= x51 x54)))
(assert (not (= x51 x55)))
(assert (not (= x51 x56)))
(assert (not (= x51 x57)))
(assert (not (= x51 x58)))
(assert (not (= x52 x53)))
(assert (not (= x52 x54)))
(assert (not (= x52 x55)))
(assert (not (= x52 x56)))
(assert (not (= x52 x57)))
(assert (not (= x52 x58)))
(assert (not (= x53 x54)))
(assert (not (= x53 x55)))
(assert (not (= x53 x56)))
(assert (not (= x53 x57)))
(assert (not (= x53 x58)))
(assert (not (= x54 x55)))
(assert (not (= x54 x56)))
(assert (not (= x54 x57)))
(assert (not (= x54 x58)))
(assert (not (= x55 x56)))
(assert (not (= x55 x57)))
(assert (not (= x55 x58)))
(assert (not (= x56 x57)))
(assert (not (= x56 x58)))
(assert (not (= x57 x58)))
(assert (not (= x60 x61)))
(assert (not (= x60 x62)))
(assert (not (= x60 x63)))
(assert (not (= x60 x64)))
(assert (not (= x60 x65)))
(assert (not (= x60 x66)))
(assert (not (= x60 x67)))
(assert (not (= x60 x68)))
(assert (not (= x61 x62)))
(assert (not (= x61 x63)))
(assert (not (= x61 x64)))
(assert (not (= x61 x65)))
(assert (not (= x61 x66)))
(assert (not (= x61 x67)))
(assert (not (= x61 x68)))
(assert (not (= x62 x63)))
(assert (not (= x62 x64)))
(assert (not (= x62 x65)))
(assert (not (= x62 x66)))
(assert (not (= x62 x67)))
(assert (not (= x62 x68)))
(assert (not (= x63 x64)))
(assert (not (= x63 x65)))
(assert (not (= x63 x66)))
(assert (not (= x63 x67)))
(assert (not (= x63 x68)))
(assert (not (= x64 x65)))
(assert (not (= x64 x66)))
(assert (not (= x64 x67)))
(assert (not (= x64 x68)))
(assert (not (= x65 x66)))
(assert (not (= x65 x67)))
(assert (not (= x65 x68)))
(assert (not (= x66 x67)))
(assert (not (= x66 x68)))
(assert (not (= x67 x68)))
(assert (not (= x70 x71)))
(assert (not (= x70 x72)))
(assert (not (= x70 x73)))
(assert (not (= x70 x74)))
(assert (not (= x70 x75)))
(assert (not (= x70 x76)))
(assert (not (= x70 x77)))
(assert (not (= x70 x78)))
(assert (not (= x71 x72)))
(assert (not (= x71 x73)))
(assert (not (= x71 x74)))
(assert (not (= x71 x75)))
(assert (not (= x71 x76)))
(assert (not (= x71 x77)))
(assert (not (= x71 x78)))
(assert (not (= x72 x73)))
(assert (not (= x72 x74)))
(assert (not (= x72 x75)))
(assert (not (= x72 x76)))
(assert (not (= x72 x77)))
(assert (not (= x72 x78)))
(assert (not (= x73 x74)))
(assert (not (= x73 x75)))
(assert (not (= x73 x76)))
(assert (not (= x73 x77)))
(assert (not (= x73 x78)))
(assert (not (= x74 x75)))
(assert (not (= x74 x76)))
(assert (not (= x74 x77)))
(assert (not (= x74 x78)))
(assert (not (= x75 x76)))
(assert (not (= x75 x77)))
(assert (not (= x75 x78)))
(assert (not (= x76 x77)))
(assert (not (= x76 x78)))
(assert (not (= x77 x78)))
(assert (not (= x80 x81)))
(assert (not (= x80 x82)))
(assert (not (= x80 x83)))
(assert (not (= x80 x84)))
(assert (not (= x80 x85)))
(assert (not (= x80 x86)))
(assert (not (= x80 x87)))
(assert (not (= x80 x88)))
(assert (not (= x81 x82)))
(assert (not (= x81 x83)))
(assert (not (= x81 x84)))
(assert (not (= x81 x85)))
(assert (not (= x81 x86)))
(assert (not (= x81 x87)))
(assert (not (= x81 x88)))
(assert (not (= x82 x83)))
(assert (not (= x82 x84)))
(assert (not (= x82 x85)))
(assert (not (= x82 x86)))
(assert (not (= x82 x87)))
(assert (not (= x82 x88)))
(assert (not (= x83 x84)))
(assert (not (= x83 x85)))
(assert (not (= x83 x86)))
(assert (not (= x83 x87)))
(assert (not (= x83 x88)))
(assert (not (= x84 x85)))
(assert (not (= x84 x86)))
(assert (not (= x84 x87)))
(assert (not (= x84 x88)))
(assert (not (= x85 x86)))
(assert (not (= x85 x87)))
(assert (not (= x85 x88)))
(assert (not (= x86 x87)))
(assert (not (= x86 x88)))
(assert (not (= x87 x88)))
(assert (not (= x00 x10)))
(assert (not (= x00 x20)))
(assert (not (= x00 x30)))
(assert (not (= x00 x40)))
(assert (not (= x00 x50)))
(assert (not (= x00 x60)))
(assert (not (= x00 x70)))
(assert (not (= x00 x80)))
(assert (not (= x10 x20)))
(assert (not (= x10 x30)))
(assert (not (= x10 x40)))
(assert (not (= x10 x50)))
(assert (not (= x10 x60)))
(assert (not (= x10 x70)))
(assert (not (= x10 x80)))
(assert (not (= x20 x30)))
(assert (not (= x20 x40)))
(assert (not (= x20 x50)))
(assert (not (= x20 x60)))
(assert (not (= x20 x70)))
(assert (not (= x20 x80)))
(assert (not (= x30 x40)))
(assert (not (= x30 x50)))
(assert (not (= x30 x60)))
(assert (not (= x30 x70)))
(assert (not (= x30 x80)))
(assert (not (= x40 x50)))
(assert (not (= x40 x60)))
(assert (not (= x40 x70)))
(assert (not (= x40 x80)))
(assert (not (= x50 x60)))
(assert (not (= x50 x70)))
(assert (not (= x50 x80)))
(assert (not (= x60 x70)))
(assert (not (= x60 x80)))
(assert (not (= x70 x80)))
(assert (not (= x01 x11)))
(assert (not (= x01 x21)))
(assert (not (= x01 x31)))
(assert (not (= x01 x41)))
(assert (not (= x01 x51)))
(assert (not (= x01 x61)))
(assert (not (= x01 x71)))
(assert (not (= x01 x81)))
(assert (not (= x11 x21)))
(assert (not (= x11 x31)))
(assert (not (= x11 x41)))
(assert (not (= x11 x51)))
(assert (not (= x11 x61)))
(assert (not (= x11 x71)))
(assert (not (= x11 x81)))
(assert (not (= x21 x31)))
(assert (not (= x21 x41)))
(assert (not (= x21 x51)))
(assert (not (= x21 x61)))
(assert (not (= x21 x71)))
(assert (not (= x21 x81)))
(assert (not (= x31 x41)))
(assert (not (= x31 x51)))
(assert (not (= x31 x61)))
(assert (not (= x31 x71)))
(assert (not (= x31 x81)))
(assert (not (= x41 x51)))
(assert (not (= x41 x61)))
(assert (not (= x41 x71)))
(assert (not (= x41 x81)))
(assert (not (= x51 x61)))
(assert (not (= x51 x71)))
(assert (not (= x51 x81)))
(assert (not (= x61 x71)))
(assert (not (= x61 x81)))
(assert (not (= x71 x81)))
(assert (not (= x02 x12)))
(assert (not (= x02 x22)))
(assert (not (= x02 x32)))
(assert (not (= x02 x42)))
(assert (not (= x02 x52)))
(assert (not (= x02 x62)))
(assert (not (= x02 x72)))
(assert (not (= x02 x82)))
(assert (not (= x12 x22)))
(assert (not (= x12 x32)))
(assert (not (= x12 x42)))
(assert (not (= x12 x52)))
(assert (not (= x12 x62)))
(assert (not (= x12 x72)))
(assert (not (= x12 x82)))
(assert (not (= x22 x32)))
(assert (not (= x22 x42)))
(assert (not (= x22 x52)))
(assert (not (= x22 x62)))
(assert (not (= x22 x72)))
(assert (not (= x22 x82)))
(assert (not (= x32 x42)))
(assert (not (= x32 x52)))
(assert (not (= x32 x62)))
(assert (not (= x32 x72)))
(assert (not (= x32 x82)))
(assert (not (= x42 x52)))
(assert (not (= x42 x62)))
(assert (not (= x42 x72)))
(assert (not (= x42 x82)))
(assert (not (= x52 x62)))
(assert (not (= x52 x72)))
(assert (not (= x52 x82)))
(assert (not (= x62 x72)))
(assert (not (= x62 x82)))
(assert (not (= x72 x82)))
(assert (not (= x03 x13)))
(assert (not (= x03 x23)))
(assert (not (= x03 x33)))
(assert (not (= x03 x43)))
(assert (not (= x03 x53)))
(assert (not (= x03 x63)))
(assert (not (= x03 x73)))
(assert (not (= x03 x83)))
(assert (not (= x13 x23)))
(assert (not (= x13 x33)))
(assert (not (= x13 x43)))
(assert (not (= x13 x53)))
(assert (not (= x13 x63)))
(assert (not (= x13 x73)))
(assert (not (= x13 x83)))
(assert (not (= x23 x33)))
(assert (not (= x23 x43)))
(assert (not (= x23 x53)))
(assert (not (= x23 x63)))
(assert (not (= x23 x73)))
(assert (not (= x23 x83)))
(assert (not (= x33 x43)))
(assert (not (= x33 x53)))
(assert (not (= x33 x63)))
(assert (not (= x33 x73)))
(assert (not (= x33 x83)))
(assert (not (= x43 x53)))
(assert (not (= x43 x63)))
(assert (not (= x43 x73)))
(assert (not (= x43 x83)))
(assert (not (= x53 x63)))
(assert (not (= x53 x73)))
(assert (not (= x53 x83)))
(assert (not (= x63 x73)))
(assert (not (= x63 x83)))
(assert (not (= x73 x83)))
(assert (not (= x04 x14)))
(assert (not (= x04 x24)))
(assert (not (= x04 x34)))
(assert (not (= x04 x44)))
(assert (not (= x04 x54)))
(assert (not (= x04 x64)))
(assert (not (= x04 x74)))
(assert (not (= x04 x84)))
(assert (not (= x14 x24)))
(assert (not (= x14 x34)))
(assert (not (= x14 x44)))
(assert (not (= x14 x54)))
(assert (not (= x14 x64)))
(assert (not (= x14 x74)))
(assert (not (= x14 x84)))
(assert (not (= x24 x34)))
(assert (not (= x24 x44)))
(assert (not (= x24 x54)))
(assert (not (= x24 x64)))
(assert (not (= x24 x74)))
(assert (not (= x24 x84)))
(assert (not (= x34 x44)))
(assert (not (= x34 x54)))
(assert (not (= x34 x64)))
(assert (not (= x34 x74)))
(assert (not (= x34 x84)))
(assert (not (= x44 x54)))
(assert (not (= x44 x64)))
(assert (not (= x44 x74)))
(assert (not (= x44 x84)))
(assert (not (= x54 x64)))
(assert (not (= x54 x74)))
(assert (not (= x54 x84)))
(assert (not (= x64 x74)))
(assert (not (= x64 x84)))
(assert (not (= x74 x84)))
(assert (not (= x05 x15)))
(assert (not (= x05 x25)))
(assert (not (= x05 x35)))
(assert (not (= x05 x45)))
(assert (not (= x05 x55)))
(assert (not (= x05 x65)))
(assert (not (= x05 x75)))
(assert (not (= x05 x85)))
(assert (not (= x15 x25)))
(assert (not (= x15 x35)))
(assert (not (= x15 x45)))
(assert (not (= x15 x55)))
(assert (not (= x15 x65)))
(assert (not (= x15 x75)))
(assert (not (= x15 x85)))
(assert (not (= x25 x35)))
(assert (not (= x25 x45)))
(assert (not (= x25 x55)))
(assert (not (= x25 x65)))
(assert (not (= x25 x75)))
(assert (not (= x25 x85)))
(assert (not (= x35 x45)))
(assert (not (= x35 x55)))
(assert (not (= x35 x65)))
(assert (not (= x35 x75)))
(assert (not (= x35 x85)))
(assert (not (= x45 x55)))
(assert (not (= x45 x65)))
(assert (not (= x45 x75)))
(assert (not (= x45 x85)))
(assert (not (= x55 x65)))
(assert (not (= x55 x75)))
(assert (not (= x55 x85)))
(assert (not (= x65 x75)))
(assert (not (= x65 x85)))
(assert (not (= x75 x85)))
(assert (not (= x06 x16)))
(assert (not (= x06 x26)))
(assert (not (= x06 x36)))
(assert (not (= x06 x46)))
(assert (not (= x06 x56)))
(assert (not (= x06 x66)))
(assert (not (= x06 x76)))
(assert (not (= x06 x86)))
(assert (not (= x16 x26)))
(assert (not (= x16 x36)))
(assert (not (= x16 x46)))
(assert (not (= x16 x56)))
(assert (not (= x16 x66)))
(assert (not (= x16 x76)))
(assert (not (= x16 x86)))
(assert (not (= x26 x36)))
(assert (not (= x26 x46)))
(assert (not (= x26 x56)))
(assert (not (= x26 x66)))
(assert (not (= x26 x76)))
(assert (not (= x26 x86)))
(assert (not (= x36 x46)))
(assert (not (= x36 x56)))
(assert (not (= x36 x66)))
(assert (not (= x36 x76)))
(assert (not (= x36 x86)))
(assert (not (= x46 x56)))
(assert (not (= x46 x66)))
(assert (not (= x46 x76)))
(assert (not (= x46 x86)))
(assert (not (= x56 x66)))
(assert (not (= x56 x76)))
(assert (not (= x56 x86)))
(assert (not (= x66 x76)))
(assert (not (= x66 x86)))
(assert (not (= x76 x86)))
(assert (not (= x07 x17)))
(assert (not (= x07 x27)))
(assert (not (= x07 x37)))
(assert (not (= x07 x47)))
(assert (not (= x07 x57)))
(assert (not (= x07 x67)))
(assert (not (= x07 x77)))
(assert (not (= x07 x87)))
(assert (not (= x17 x27)))
(assert (not (= x17 x37)))
(assert (not (= x17 x47)))
(assert (not (= x17 x57)))
(assert (not (= x17 x67)))
(assert (not (= x17 x77)))
(assert (not (= x17 x87)))
(assert (not (= x27 x37)))
(assert (not (= x27 x47)))
(assert (not (= x27 x57)))
(assert (not (= x27 x67)))
(assert (not (= x27 x77)))
(assert (not (= x27 x87)))
(assert (not (= x37 x47)))
(assert (not (= x37 x57)))
(assert (not (= x37 x67)))
(assert (not (= x37 x77)))
(assert (not (= x37 x87)))
(assert (not (= x47 x57)))
(assert (not (= x47 x67)))
(assert (not (= x47 x77)))
(assert (not (= x47 x87)))
(assert (not (= x57 x67)))
(assert (not (= x57 x77)))
(assert (not (= x57 x87)))
(assert (not (= x67 x77)))
(assert (not (= x67 x87)))
(assert (not (= x77 x87)))
(assert (not (= x08 x18)))
(assert (not (= x08 x28)))
(assert (not (= x08 x38)))
(assert (not (= x08 x48)))
(assert (not (= x08 x58)))
(assert (not (= x08 x68)))
(assert (not (= x08 x78)))
(assert (not (= x08 x88)))
(assert (not (= x18 x28)))
(assert (not (= x18 x38)))
(assert (not (= x18 x48)))
(assert (not (= x18 x58)))
(assert (not (= x18 x68)))
(assert (not (= x18 x78)))
(assert (not (= x18 x88)))
(assert (not (= x28 x38)))
(assert (not (= x28 x48)))
(assert (not (= x28 x58)))
(assert (not (= x28 x68)))
(assert (not (= x28 x78)))
(assert (not (= x28 x88)))
(assert (not (= x38 x48)))
(assert (not (= x38 x58)))
(assert (not (= x38 x68)))
(assert (not (= x38 x78)))
(assert (not (= x38 x88)))
(assert (not (= x48 x58)))
(assert (not (= x48 x68)))
(assert (not (= x48 x78)))
(assert (not (= x48 x88)))
(assert (not (= x58 x68)))
(assert (not (= x58 x78)))
(assert (not (= x58 x88)))
(assert (not (= x68 x78)))
(assert (not (= x68 x88)))
(assert (not (= x78 x88)))
(assert (not (= x00 x01)))
(assert (not (= x00 x02)))
(assert (not (= x00 x10)))
(assert (not (= x00 x11)))
(assert (not (= x00 x12)))
(assert (not (= x00 x20)))
(assert (not (= x00 x21)))
(assert (not (= x00 x22)))
(assert (not (= x01 x00)))
(assert (not (= x01 x02)))
(assert (not (= x01 x10)))
(assert (not (= x01 x11)))
(assert (not (= x01 x12)))
(assert (not (= x01 x20)))
(assert (not (= x01 x21)))
(assert (not (= x01 x22)))
(assert (not (= x02 x00)))
(assert (not (= x02 x01)))
(assert (not (= x02 x10)))
(assert (not (= x02 x11)))
(assert (not (= x02 x12)))
(assert (not (= x02 x20)))
(assert (not (= x02 x21)))
(assert (not (= x02 x22)))
(assert (not (= x10 x00)))
(assert (not (= x10 x01)))
(assert (not (= x10 x02)))
(assert (not (= x10 x11)))
(assert (not (= x10 x12)))
(assert (not (= x10 x20)))
(assert (not (= x10 x21)))
(assert (not (= x10 x22)))
(assert (not (= x11 x00)))
(assert (not (= x11 x01)))
(assert (not (= x11 x02)))
(assert (not (= x11 x10)))
(assert (not (= x11 x12)))
(assert (not (= x11 x20)))
(assert (not (= x11 x21)))
(assert (not (= x11 x22)))
(assert (not (= x12 x00)))
(assert (not (= x12 x01)))
(assert (not (= x12 x02)))
(assert (not (= x12 x10)))
(assert (not (= x12 x11)))
(assert (not (= x12 x20)))
(assert (not (= x12 x21)))
(assert (not (= x12 x22)))
(assert (not (= x20 x00)))
(assert (not (= x20 x01)))
(assert (not (= x20 x02)))
(assert (not (= x20 x10)))
(assert (not (= x20 x11)))
(assert (not (= x20 x12)))
(assert (not (= x20 x21)))
(assert (not (= x20 x22)))
(assert (not (= x21 x00)))
(assert (not (= x21 x01)))
(assert (not (= x21 x02)))
(assert (not (= x21 x10)))
(assert (not (= x21 x11)))
(assert (not (= x21 x12)))
(assert (not (= x21 x20)))
(assert (not (= x21 x22)))
(assert (not (= x22 x00)))
(assert (not (= x22 x01)))
(assert (not (= x22 x02)))
(assert (not (= x22 x10)))
(assert (not (= x22 x11)))
(assert (not (= x22 x12)))
(assert (not (= x22 x20)))
(assert (not (= x22 x21)))
(assert (not (= x03 x04)))
(assert (not (= x03 x05)))
(assert (not (= x03 x13)))
(assert (not (= x03 x14)))
(assert (not (= x03 x15)))
(assert (not (= x03 x23)))
(assert (not (= x03 x24)))
(assert (not (= x03 x25)))
(assert (not (= x04 x03)))
(assert (not (= x04 x05)))
(assert (not (= x04 x13)))
(assert (not (= x04 x14)))
(assert (not (= x04 x15)))
(assert (not (= x04 x23)))
(assert (not (= x04 x24)))
(assert (not (= x04 x25)))
(assert (not (= x05 x03)))
(assert (not (= x05 x04)))
(assert (not (= x05 x13)))
(assert (not (= x05 x14)))
(assert (not (= x05 x15)))
(assert (not (= x05 x23)))
(assert (not (= x05 x24)))
(assert (not (= x05 x25)))
(assert (not (= x13 x03)))
(assert (not (= x13 x04)))
(assert (not (= x13 x05)))
(assert (not (= x13 x14)))
(assert (not (= x13 x15)))
(assert (not (= x13 x23)))
(assert (not (= x13 x24)))
(assert (not (= x13 x25)))
(assert (not (= x14 x03)))
(assert (not (= x14 x04)))
(assert (not (= x14 x05)))
(assert (not (= x14 x13)))
(assert (not (= x14 x15)))
(assert (not (= x14 x23)))
(assert (not (= x14 x24)))
(assert (not (= x14 x25)))
(assert (not (= x15 x03)))
(assert (not (= x15 x04)))
(assert (not (= x15 x05)))
(assert (not (= x15 x13)))
(assert (not (= x15 x14)))
(assert (not (= x15 x23)))
(assert (not (= x15 x24)))
(assert (not (= x15 x25)))
(assert (not (= x23 x03)))
(assert (not (= x23 x04)))
(assert (not (= x23 x05)))
(assert (not (= x23 x13)))
(assert (not (= x23 x14)))
(assert (not (= x23 x15)))
(assert (not (= x23 x24)))
(assert (not (= x23 x25)))
(assert (not (= x24 x03)))
(assert (not (= x24 x04)))
(assert (not (= x24 x05)))
(assert (not (= x24 x13)))
(assert (not (= x24 x14)))
(assert (not (= x24 x15)))
(assert (not (= x24 x23)))
(assert (not (= x24 x25)))
(assert (not (= x25 x03)))
(assert (not (= x25 x04)))
(assert (not (= x25 x05)))
(assert (not (= x25 x13)))
(assert (not (= x25 x14)))
(assert (not (= x25 x15)))
(assert (not (= x25 x23)))
(assert (not (= x25 x24)))
(assert (not (= x06 x07)))
(assert (not (= x06 x08)))
(assert (not (= x06 x16)))
(assert (not (= x06 x17)))
(assert (not (= x06 x18)))
(assert (not (= x06 x26)))
(assert (not (= x06 x27)))
(assert (not (= x06 x28)))
(assert (not (= x07 x06)))
(assert (not (= x07 x08)))
(assert (not (= x07 x16)))
(assert (not (= x07 x17)))
(assert (not (= x07 x18)))
(assert (not (= x07 x26)))
(assert (not (= x07 x27)))
(assert (not (= x07 x28)))
(assert (not (= x08 x06)))
(assert (not (= x08 x07)))
(assert (not (= x08 x16)))
(assert (not (= x08 x17)))
(assert (not (= x08 x18)))
(assert (not (= x08 x26)))
(assert (not (= x08 x27)))
(assert (not (= x08 x28)))
(assert (not (= x16 x06)))
(assert (not (= x16 x07)))
(assert (not (= x16 x08)))
(assert (not (= x16 x17)))
(assert (not (= x16 x18)))
(assert (not (= x16 x26)))
(assert (not (= x16 x27)))
(assert (not (= x16 x28)))
(assert (not (= x17 x06)))
(assert (not (= x17 x07)))
(assert (not (= x17 x08)))
(assert (not (= x17 x16)))
(assert (not (= x17 x18)))
(assert (not (= x17 x26)))
(assert (not (= x17 x27)))
(assert (not (= x17 x28)))
(assert (not (= x18 x06)))
(assert (not (= x18 x07)))
(assert (not (= x18 x08)))
(assert (not (= x18 x16)))
(assert (not (= x18 x17)))
(assert (not (= x18 x26)))
(assert (not (= x18 x27)))
(assert (not (= x18 x28)))
(assert (not (= x26 x06)))
(assert (not (= x26 x07)))
(assert (not (= x26 x08)))
(assert (not (= x26 x16)))
(assert (not (= x26 x17)))
(assert (not (= x26 x18)))
(assert (not (= x26 x27)))
(assert (not (= x26 x28)))
(assert (not (= x27 x06)))
(assert (not (= x27 x07)))
(assert (not (= x27 x08)))
(assert (not (= x27 x16)))
(assert (not (= x27 x17)))
(assert (not (= x27 x18)))
(assert (not (= x27 x26)))
(assert (not (= x27 x28)))
(assert (not (= x28 x06)))
(assert (not (= x28 x07)))
(assert (not (= x28 x08)))
(assert (not (= x28 x16)))
(assert (not (= x28 x17)))
(assert (not (= x28 x18)))
(assert (not (= x28 x26)))
(assert (not (= x28 x27)))
(assert (not (= x30 x31)))
(assert (not (= x30 x32)))
(assert (not (= x30 x40)))
(assert (not (= x30 x41)))
(assert (not (= x30 x42)))
(assert (not (= x30 x50)))
(assert (not (= x30 x51)))
(assert (not (= x30 x52)))
(assert (not (= x31 x30)))
(assert (not (= x31 x32)))
(assert (not (= x31 x40)))
(assert (not (= x31 x41)))
(assert (not (= x31 x42)))
(assert (not (= x31 x50)))
(assert (not (= x31 x51)))
(assert (not (= x31 x52)))
(assert (not (= x32 x30)))
(assert (not (= x32 x31)))
(assert (not (= x32 x40)))
(assert (not (= x32 x41)))
(assert (not (= x32 x42)))
(assert (not (= x32 x50)))
(assert (not (= x32 x51)))
(assert (not (= x32 x52)))
(assert (not (= x40 x30)))
(assert (not (= x40 x31)))
(assert (not (= x40 x32)))
(assert (not (= x40 x41)))
(assert (not (= x40 x42)))
(assert (not (= x40 x50)))
(assert (not (= x40 x51)))
(assert (not (= x40 x52)))
(assert (not (= x41 x30)))
(assert (not (= x41 x31)))
(assert (not (= x41 x32)))
(assert (not (= x41 x40)))
(assert (not (= x41 x42)))
(assert (not (= x41 x50)))
(assert (not (= x41 x51)))
(assert (not (= x41 x52)))
(assert (not (= x42 x30)))
(assert (not (= x42 x31)))
(assert (not (= x42 x32)))
(assert (not (= x42 x40)))
(assert (not (= x42 x41)))
(assert (not (= x42 x50)))
(assert (not (= x42 x51)))
(assert (not (= x42 x52)))
(assert (not (= x50 x30)))
(assert (not (= x50 x31)))
(assert (not (= x50 x32)))
(assert (not (= x50 x40)))
(assert (not (= x50 x41)))
(assert (not (= x50 x42)))
(assert (not (= x50 x51)))
(assert (not (= x50 x52)))
(assert (not (= x51 x30)))
(assert (not (= x51 x31)))
(assert (not (= x51 x32)))
(assert (not (= x51 x40)))
(assert (not (= x51 x41)))
(assert (not (= x51 x42)))
(assert (not (= x51 x50)))
(assert (not (= x51 x52)))
(assert (not (= x52 x30)))
(assert (not (= x52 x31)))
(assert (not (= x52 x32)))
(assert (not (= x52 x40)))
(assert (not (= x52 x41)))
(assert (not (= x52 x42)))
(assert (not (= x52 x50)))
(assert (not (= x52 x51)))
(assert (not (= x33 x34)))
(assert (not (= x33 x35)))
(assert (not (= x33 x43)))
(assert (not (= x33 x44)))
(assert (not (= x33 x45)))
(assert (not (= x33 x53)))
(assert (not (= x33 x54)))
(assert (not (= x33 x55)))
(assert (not (= x34 x33)))
(assert (not (= x34 x35)))
(assert (not (= x34 x43)))
(assert (not (= x34 x44)))
(assert (not (= x34 x45)))
(assert (not (= x34 x53)))
(assert (not (= x34 x54)))
(assert (not (= x34 x55)))
(assert (not (= x35 x33)))
(assert (not (= x35 x34)))
(assert (not (= x35 x43)))
(assert (not (= x35 x44)))
(assert (not (= x35 x45)))
(assert (not (= x35 x53)))
(assert (not (= x35 x54)))
(assert (not (= x35 x55)))
(assert (not (= x43 x33)))
(assert (not (= x43 x34)))
(assert (not (= x43 x35)))
(assert (not (= x43 x44)))
(assert (not (= x43 x45)))
(assert (not (= x43 x53)))
(assert (not (= x43 x54)))
(assert (not (= x43 x55)))
(assert (not (= x44 x33)))
(assert (not (= x44 x34)))
(assert (not (= x44 x35)))
(assert (not (= x44 x43)))
(assert (not (= x44 x45)))
(assert (not (= x44 x53)))
(assert (not (= x44 x54)))
(assert (not (= x44 x55)))
(assert (not (= x45 x33)))
(assert (not (= x45 x34)))
(assert (not (= x45 x35)))
(assert (not (= x45 x43)))
(assert (not (= x45 x44)))
(assert (not (= x45 x53)))
(assert (not (= x45 x54)))
(assert (not (= x45 x55)))
(assert (not (= x53 x33)))
(assert (not (= x53 x34)))
(assert (not (= x53 x35)))
(assert (not (= x53 x43)))
(assert (not (= x53 x44)))
(assert (not (= x53 x45)))
(assert (not (= x53 x54)))
(assert (not (= x53 x55)))
(assert (not (= x54 x33)))
(assert (not (= x54 x34)))
(assert (not (= x54 x35)))
(assert (not (= x54 x43)))
(assert (not (= x54 x44)))
(assert (not (= x54 x45)))
(assert (not (= x54 x53)))
(assert (not (= x54 x55)))
(assert (not (= x55 x33)))
(assert (not (= x55 x34)))
(assert (not (= x55 x35)))
(assert (not (= x55 x43)))
(assert (not (= x55 x44)))
(assert (not (= x55 x45)))
(assert (not (= x55 x53)))
(assert (not (= x55 x54)))
(assert (not (= x36 x37)))
(assert (not (= x36 x38)))
(assert (not (= x36 x46)))
(assert (not (= x36 x47)))
(assert (not (= x36 x48)))
(assert (not (= x36 x56)))
(assert (not (= x36 x57)))
(assert (not (= x36 x58)))
(assert (not (= x37 x36)))
(assert (not (= x37 x38)))
(assert (not (= x37 x46)))
(assert (not (= x37 x47)))
(assert (not (= x37 x48)))
(assert (not (= x37 x56)))
(assert (not (= x37 x57)))
(assert (not (= x37 x58)))
(assert (not (= x38 x36)))
(assert (not (= x38 x37)))
(assert (not (= x38 x46)))
(assert (not (= x38 x47)))
(assert (not (= x38 x48)))
(assert (not (= x38 x56)))
(assert (not (= x38 x57)))
(assert (not (= x38 x58)))
(assert (not (= x46 x36)))
(assert (not (= x46 x37)))
(assert (not (= x46 x38)))
(assert (not (= x46 x47)))
(assert (not (= x46 x48)))
(assert (not (= x46 x56)))
(assert (not (= x46 x57)))
(assert (not (= x46 x58)))
(assert (not (= x47 x36)))
(assert (not (= x47 x37)))
(assert (not (= x47 x38)))
(assert (not (= x47 x46)))
(assert (not (= x47 x48)))
(assert (not (= x47 x56)))
(assert (not (= x47 x57)))
(assert (not (= x47 x58)))
(assert (not (= x48 x36)))
(assert (not (= x48 x37)))
(assert (not (= x48 x38)))
(assert (not (= x48 x46)))
(assert (not (= x48 x47)))
(assert (not (= x48 x56)))
(assert (not (= x48 x57)))
(assert (not (= x48 x58)))
(assert (not (= x56 x36)))
(assert (not (= x56 x37)))
(assert (not (= x56 x38)))
(assert (not (= x56 x46)))
(assert (not (= x56 x47)))
(assert (not (= x56 x48)))
(assert (not (= x56 x57)))
(assert (not (= x56 x58)))
(assert (not (= x57 x36)))
(assert (not (= x57 x37)))
(assert (not (= x57 x38)))
(assert (not (= x57 x46)))
(assert (not (= x57 x47)))
(assert (not (= x57 x48)))
(assert (not (= x57 x56)))
(assert (not (= x57 x58)))
(assert (not (= x58 x36)))
(assert (not (= x58 x37)))
(assert (not (= x58 x38)))
(assert (not (= x58 x46)))
(assert (not (= x58 x47)))
(assert (not (= x58 x48)))
(assert (not (= x58 x56)))
(assert (not (= x58 x57)))
(assert (not (= x60 x61)))
(assert (not (= x60 x62)))
(assert (not (= x60 x70)))
(assert (not (= x60 x71)))
(assert (not (= x60 x72)))
(assert (not (= x60 x80)))
(assert (not (= x60 x81)))
(assert (not (= x60 x82)))
(assert (not (= x61 x60)))
(assert (not (= x61 x62)))
(assert (not (= x61 x70)))
(assert (not (= x61 x71)))
(assert (not (= x61 x72)))
(assert (not (= x61 x80)))
(assert (not (= x61 x81)))
(assert (not (= x61 x82)))
(assert (not (= x62 x60)))
(assert (not (= x62 x61)))
(assert (not (= x62 x70)))
(assert (not (= x62 x71)))
(assert (not (= x62 x72)))
(assert (not (= x62 x80)))
(assert (not (= x62 x81)))
(assert (not (= x62 x82)))
(assert (not (= x70 x60)))
(assert (not (= x70 x61)))
(assert (not (= x70 x62)))
(assert (not (= x70 x71)))
(assert (not (= x70 x72)))
(assert (not (= x70 x80)))
(assert (not (= x70 x81)))
(assert (not (= x70 x82)))
(assert (not (= x71 x60)))
(assert (not (= x71 x61)))
(assert (not (= x71 x62)))
(assert (not (= x71 x70)))
(assert (not (= x71 x72)))
(assert (not (= x71 x80)))
(assert (not (= x71 x81)))
(assert (not (= x71 x82)))
(assert (not (= x72 x60)))
(assert (not (= x72 x61)))
(assert (not (= x72 x62)))
(assert (not (= x72 x70)))
(assert (not (= x72 x71)))
(assert (not (= x72 x80)))
(assert (not (= x72 x81)))
(assert (not (= x72 x82)))
(assert (not (= x80 x60)))
(assert (not (= x80 x61)))
(assert (not (= x80 x62)))
(assert (not (= x80 x70)))
(assert (not (= x80 x71)))
(assert (not (= x80 x72)))
(assert (not (= x80 x81)))
(assert (not (= x80 x82)))
(assert (not (= x81 x60)))
(assert (not (= x81 x61)))
(assert (not (= x81 x62)))
(assert (not (= x81 x70)))
(assert (not (= x81 x71)))
(assert (not (= x81 x72)))
(assert (not (= x81 x80)))
(assert (not (= x81 x82)))
(assert (not (= x82 x60)))
(assert (not (= x82 x61)))
(assert (not (= x82 x62)))
(assert (not (= x82 x70)))
(assert (not (= x82 x71)))
(assert (not (= x82 x72)))
(assert (not (= x82 x80)))
(assert (not (= x82 x81)))
(assert (not (= x63 x64)))
(assert (not (= x63 x65)))
(assert (not (= x63 x73)))
(assert (not (= x63 x74)))
(assert (not (= x63 x75)))
(assert (not (= x63 x83)))
(assert (not (= x63 x84)))
(assert (not (= x63 x85)))
(assert (not (= x64 x63)))
(assert (not (= x64 x65)))
(assert (not (= x64 x73)))
(assert (not (= x64 x74)))
(assert (not (= x64 x75)))
(assert (not (= x64 x83)))
(assert (not (= x64 x84)))
(assert (not (= x64 x85)))
(assert (not (= x65 x63)))
(assert (not (= x65 x64)))
(assert (not (= x65 x73)))
(assert (not (= x65 x74)))
(assert (not (= x65 x75)))
(assert (not (= x65 x83)))
(assert (not (= x65 x84)))
(assert (not (= x65 x85)))
(assert (not (= x73 x63)))
(assert (not (= x73 x64)))
(assert (not (= x73 x65)))
(assert (not (= x73 x74)))
(assert (not (= x73 x75)))
(assert (not (= x73 x83)))
(assert (not (= x73 x84)))
(assert (not (= x73 x85)))
(assert (not (= x74 x63)))
(assert (not (= x74 x64)))
(assert (not (= x74 x65)))
(assert (not (= x74 x73)))
(assert (not (= x74 x75)))
(assert (not (= x74 x83)))
(assert (not (= x74 x84)))
(assert (not (= x74 x85)))
(assert (not (= x75 x63)))
(assert (not (= x75 x64)))
(assert (not (= x75 x65)))
(assert (not (= x75 x73)))
(assert (not (= x75 x74)))
(assert (not (= x75 x83)))
(assert (not (= x75 x84)))
(assert (not (= x75 x85)))
(assert (not (= x83 x63)))
(assert (not (= x83 x64)))
(assert (not (= x83 x65)))
(assert (not (= x83 x73)))
(assert (not (= x83 x74)))
(assert (not (= x83 x75)))
(assert (not (= x83 x84)))
(assert (not (= x83 x85)))
(assert (not (= x84 x63)))
(assert (not (= x84 x64)))
(assert (not (= x84 x65)))
(assert (not (= x84 x73)))
(assert (not (= x84 x74)))
(assert (not (= x84 x75)))
(assert (not (= x84 x83)))
(assert (not (= x84 x85)))
(assert (not (= x85 x63)))
(assert (not (= x85 x64)))
(assert (not (= x85 x65)))
(assert (not (= x85 x73)))
(assert (not (= x85 x74)))
(assert (not (= x85 x75)))
(assert (not (= x85 x83)))
(assert (not (= x85 x84)))
(assert (not (= x66 x67)))
(assert (not (= x66 x68)))
(assert (not (= x66 x76)))
(assert (not (= x66 x77)))
(assert (not (= x66 x78)))
(assert (not (= x66 x86)))
(assert (not (= x66 x87)))
(assert (not (= x66 x88)))
(assert (not (= x67 x66)))
(assert (not (= x67 x68)))
(assert (not (= x67 x76)))
(assert (not (= x67 x77)))
(assert (not (= x67 x78)))
(assert (not (= x67 x86)))
(assert (not (= x67 x87)))
(assert (not (= x67 x88)))
(assert (not (= x68 x66)))
(assert (not (= x68 x67)))
(assert (not (= x68 x76)))
(assert (not (= x68 x77)))
(assert (not (= x68 x78)))
(assert (not (= x68 x86)))
(assert (not (= x68 x87)))
(assert (not (= x68 x88)))
(assert (not (= x76 x66)))
(assert (not (= x76 x67)))
(assert (not (= x76 x68)))
(assert (not (= x76 x77)))
(assert (not (= x76 x78)))
(assert (not (= x76 x86)))
(assert (not (= x76 x87)))
(assert (not (= x76 x88)))
(assert (not (= x77 x66)))
(assert (not (= x77 x67)))
(assert (not (= x77 x68)))
(assert (not (= x77 x76)))
(assert (not (= x77 x78)))
(assert (not (= x77 x86)))
(assert (not (= x77 x87)))
(assert (not (= x77 x88)))
(assert (not (= x78 x66)))
(assert (not (= x78 x67)))
(assert (not (= x78 x68)))
(assert (not (= x78 x76)))
(assert (not (= x78 x77)))
(assert (not (= x78 x86)))
(assert (not (= x78 x87)))
(assert (not (= x78 x88)))
(assert (not (= x86 x66)))
(assert (not (= x86 x67)))
(assert (not (= x86 x68)))
(assert (not (= x86 x76)))
(assert (not (= x86 x77)))
(assert (not (= x86 x78)))
(assert (not (= x86 x87)))
(assert (not (= x86 x88)))
(assert (not (= x87 x66)))
(assert (not (= x87 x67)))
(assert (not (= x87 x68)))
(assert (not (= x87 x76)))
(assert (not (= x87 x77)))
(assert (not (= x87 x78)))
(assert (not (= x87 x86)))
(assert (not (= x87 x88)))
(assert (not (= x88 x66)))
(assert (not (= x88 x67)))
(assert (not (= x88 x68)))
(assert (not (= x88 x76)))
(assert (not (= x88 x77)))
(assert (not (= x88 x78)))
(assert (not (= x88 x86)))
(assert (not (= x88 x87)))

(check-sat)
(get-model)
